predicate fzn_all_different_int(array [int] of var int: x);
predicate array_int_element_offset(var int: idx,array [int] of var int: x,var int: c,int: offset);
array [1..10] of int: X_INTRODUCED_27_ = [1,0,0,0,0,0,1,1,1,1];
array [1..2] of int: X_INTRODUCED_31_ = [1,1];
array [1..10] of int: X_INTRODUCED_48_ = [0,0,1,1,1,1,0,0,1,1];
array [1..3] of int: X_INTRODUCED_53_ = [1,1,1];
array [1..10] of int: X_INTRODUCED_68_ = [1,0,0,0,0,0,1,1,0,0];
array [1..10] of int: X_INTRODUCED_87_ = [1,1,0,0,1,1,0,0,0,0];
array [1..5] of int: X_INTRODUCED_94_ = [1,1,1,1,1];
array [1..10] of int: X_INTRODUCED_105_ = [0,0,1,1,0,0,0,0,0,0];
var 1..10: X_INTRODUCED_17_;
var 1..10: X_INTRODUCED_18_;
var 1..10: X_INTRODUCED_19_;
var 1..10: X_INTRODUCED_20_;
var 1..10: X_INTRODUCED_21_;
var 1..10: X_INTRODUCED_22_;
var 1..10: X_INTRODUCED_23_;
var 1..10: X_INTRODUCED_24_;
var 1..10: X_INTRODUCED_25_;
var 1..10: X_INTRODUCED_26_;
var 0..1: X_INTRODUCED_28_ ::var_is_introduced :: is_defined_var;
var 0..1: X_INTRODUCED_29_ ::var_is_introduced :: is_defined_var;
var 0..1: X_INTRODUCED_32_ ::var_is_introduced :: is_defined_var;
var 0..1: X_INTRODUCED_34_ ::var_is_introduced :: is_defined_var;
var 0..1: X_INTRODUCED_36_ ::var_is_introduced :: is_defined_var;
var 0..1: X_INTRODUCED_38_ ::var_is_introduced :: is_defined_var;
var 0..1: X_INTRODUCED_40_ ::var_is_introduced :: is_defined_var;
var 0..1: X_INTRODUCED_42_ ::var_is_introduced :: is_defined_var;
var 0..1: X_INTRODUCED_44_ ::var_is_introduced :: is_defined_var;
var 0..1: X_INTRODUCED_46_ ::var_is_introduced :: is_defined_var;
var 0..1: X_INTRODUCED_49_ ::var_is_introduced :: is_defined_var;
var 0..1: X_INTRODUCED_50_ ::var_is_introduced :: is_defined_var;
var 0..1: X_INTRODUCED_51_ ::var_is_introduced :: is_defined_var;
var 0..1: X_INTRODUCED_54_ ::var_is_introduced :: is_defined_var;
var 0..1: X_INTRODUCED_56_ ::var_is_introduced :: is_defined_var;
var 0..1: X_INTRODUCED_58_ ::var_is_introduced :: is_defined_var;
var 0..1: X_INTRODUCED_60_ ::var_is_introduced :: is_defined_var;
var 0..1: X_INTRODUCED_62_ ::var_is_introduced :: is_defined_var;
var 0..1: X_INTRODUCED_64_ ::var_is_introduced :: is_defined_var;
var 0..1: X_INTRODUCED_66_ ::var_is_introduced :: is_defined_var;
var 0..1: X_INTRODUCED_69_ ::var_is_introduced :: is_defined_var;
var 0..1: X_INTRODUCED_70_ ::var_is_introduced :: is_defined_var;
var 0..1: X_INTRODUCED_71_ ::var_is_introduced :: is_defined_var;
var 0..1: X_INTRODUCED_73_ ::var_is_introduced :: is_defined_var;
var 0..1: X_INTRODUCED_75_ ::var_is_introduced :: is_defined_var;
var 0..1: X_INTRODUCED_77_ ::var_is_introduced :: is_defined_var;
var 0..1: X_INTRODUCED_79_ ::var_is_introduced :: is_defined_var;
var 0..1: X_INTRODUCED_81_ ::var_is_introduced :: is_defined_var;
var 0..1: X_INTRODUCED_83_ ::var_is_introduced :: is_defined_var;
var 0..1: X_INTRODUCED_85_ ::var_is_introduced :: is_defined_var;
var 0..1: X_INTRODUCED_88_ ::var_is_introduced :: is_defined_var;
var 0..1: X_INTRODUCED_89_ ::var_is_introduced :: is_defined_var;
var 0..1: X_INTRODUCED_90_ ::var_is_introduced :: is_defined_var;
var 0..1: X_INTRODUCED_91_ ::var_is_introduced :: is_defined_var;
var 0..1: X_INTRODUCED_92_ ::var_is_introduced :: is_defined_var;
var 0..1: X_INTRODUCED_95_ ::var_is_introduced :: is_defined_var;
var 0..1: X_INTRODUCED_97_ ::var_is_introduced :: is_defined_var;
var 0..1: X_INTRODUCED_99_ ::var_is_introduced :: is_defined_var;
var 0..1: X_INTRODUCED_101_ ::var_is_introduced :: is_defined_var;
var 0..1: X_INTRODUCED_103_ ::var_is_introduced :: is_defined_var;
var 0..1: X_INTRODUCED_106_ ::var_is_introduced :: is_defined_var;
var 0..1: X_INTRODUCED_107_ ::var_is_introduced :: is_defined_var;
var 0..1: X_INTRODUCED_108_ ::var_is_introduced :: is_defined_var;
var 0..1: X_INTRODUCED_109_ ::var_is_introduced :: is_defined_var;
var 0..1: X_INTRODUCED_110_ ::var_is_introduced :: is_defined_var;
var 0..1: X_INTRODUCED_112_ ::var_is_introduced :: is_defined_var;
var 0..1: X_INTRODUCED_114_ ::var_is_introduced :: is_defined_var;
var 0..1: X_INTRODUCED_116_ ::var_is_introduced :: is_defined_var;
var 0..1: X_INTRODUCED_118_ ::var_is_introduced :: is_defined_var;
var 0..1: X_INTRODUCED_120_ ::var_is_introduced :: is_defined_var;
array [1..10] of var int: Sequence:: output_array([1..10]) = [X_INTRODUCED_17_,X_INTRODUCED_18_,X_INTRODUCED_19_,X_INTRODUCED_20_,X_INTRODUCED_21_,X_INTRODUCED_22_,X_INTRODUCED_23_,X_INTRODUCED_24_,X_INTRODUCED_25_,X_INTRODUCED_26_];
constraint fzn_all_different_int(Sequence);
constraint array_int_element_offset(X_INTRODUCED_17_,X_INTRODUCED_27_,X_INTRODUCED_28_,1);
constraint array_int_element_offset(X_INTRODUCED_18_,X_INTRODUCED_27_,X_INTRODUCED_29_,1);
constraint int_lin_le(X_INTRODUCED_31_,[X_INTRODUCED_28_,X_INTRODUCED_29_],1);
constraint array_int_element_offset(X_INTRODUCED_19_,X_INTRODUCED_27_,X_INTRODUCED_32_,1);
constraint int_lin_le(X_INTRODUCED_31_,[X_INTRODUCED_29_,X_INTRODUCED_32_],1);
constraint array_int_element_offset(X_INTRODUCED_20_,X_INTRODUCED_27_,X_INTRODUCED_34_,1);
constraint int_lin_le(X_INTRODUCED_31_,[X_INTRODUCED_32_,X_INTRODUCED_34_],1);
constraint array_int_element_offset(X_INTRODUCED_21_,X_INTRODUCED_27_,X_INTRODUCED_36_,1);
constraint int_lin_le(X_INTRODUCED_31_,[X_INTRODUCED_34_,X_INTRODUCED_36_],1);
constraint array_int_element_offset(X_INTRODUCED_22_,X_INTRODUCED_27_,X_INTRODUCED_38_,1);
constraint int_lin_le(X_INTRODUCED_31_,[X_INTRODUCED_36_,X_INTRODUCED_38_],1);
constraint array_int_element_offset(X_INTRODUCED_23_,X_INTRODUCED_27_,X_INTRODUCED_40_,1);
constraint int_lin_le(X_INTRODUCED_31_,[X_INTRODUCED_38_,X_INTRODUCED_40_],1);
constraint array_int_element_offset(X_INTRODUCED_24_,X_INTRODUCED_27_,X_INTRODUCED_42_,1);
constraint int_lin_le(X_INTRODUCED_31_,[X_INTRODUCED_40_,X_INTRODUCED_42_],1);
constraint array_int_element_offset(X_INTRODUCED_25_,X_INTRODUCED_27_,X_INTRODUCED_44_,1);
constraint int_lin_le(X_INTRODUCED_31_,[X_INTRODUCED_42_,X_INTRODUCED_44_],1);
constraint array_int_element_offset(X_INTRODUCED_26_,X_INTRODUCED_27_,X_INTRODUCED_46_,1);
constraint int_lin_le(X_INTRODUCED_31_,[X_INTRODUCED_44_,X_INTRODUCED_46_],1);
constraint array_int_element_offset(X_INTRODUCED_17_,X_INTRODUCED_48_,X_INTRODUCED_49_,1);
constraint array_int_element_offset(X_INTRODUCED_18_,X_INTRODUCED_48_,X_INTRODUCED_50_,1);
constraint array_int_element_offset(X_INTRODUCED_19_,X_INTRODUCED_48_,X_INTRODUCED_51_,1);
constraint int_lin_le(X_INTRODUCED_53_,[X_INTRODUCED_49_,X_INTRODUCED_50_,X_INTRODUCED_51_],2);
constraint array_int_element_offset(X_INTRODUCED_20_,X_INTRODUCED_48_,X_INTRODUCED_54_,1);
constraint int_lin_le(X_INTRODUCED_53_,[X_INTRODUCED_50_,X_INTRODUCED_51_,X_INTRODUCED_54_],2);
constraint array_int_element_offset(X_INTRODUCED_21_,X_INTRODUCED_48_,X_INTRODUCED_56_,1);
constraint int_lin_le(X_INTRODUCED_53_,[X_INTRODUCED_51_,X_INTRODUCED_54_,X_INTRODUCED_56_],2);
constraint array_int_element_offset(X_INTRODUCED_22_,X_INTRODUCED_48_,X_INTRODUCED_58_,1);
constraint int_lin_le(X_INTRODUCED_53_,[X_INTRODUCED_54_,X_INTRODUCED_56_,X_INTRODUCED_58_],2);
constraint array_int_element_offset(X_INTRODUCED_23_,X_INTRODUCED_48_,X_INTRODUCED_60_,1);
constraint int_lin_le(X_INTRODUCED_53_,[X_INTRODUCED_56_,X_INTRODUCED_58_,X_INTRODUCED_60_],2);
constraint array_int_element_offset(X_INTRODUCED_24_,X_INTRODUCED_48_,X_INTRODUCED_62_,1);
constraint int_lin_le(X_INTRODUCED_53_,[X_INTRODUCED_58_,X_INTRODUCED_60_,X_INTRODUCED_62_],2);
constraint array_int_element_offset(X_INTRODUCED_25_,X_INTRODUCED_48_,X_INTRODUCED_64_,1);
constraint int_lin_le(X_INTRODUCED_53_,[X_INTRODUCED_60_,X_INTRODUCED_62_,X_INTRODUCED_64_],2);
constraint array_int_element_offset(X_INTRODUCED_26_,X_INTRODUCED_48_,X_INTRODUCED_66_,1);
constraint int_lin_le(X_INTRODUCED_53_,[X_INTRODUCED_62_,X_INTRODUCED_64_,X_INTRODUCED_66_],2);
constraint array_int_element_offset(X_INTRODUCED_17_,X_INTRODUCED_68_,X_INTRODUCED_69_,1);
constraint array_int_element_offset(X_INTRODUCED_18_,X_INTRODUCED_68_,X_INTRODUCED_70_,1);
constraint array_int_element_offset(X_INTRODUCED_19_,X_INTRODUCED_68_,X_INTRODUCED_71_,1);
constraint int_lin_le(X_INTRODUCED_53_,[X_INTRODUCED_69_,X_INTRODUCED_70_,X_INTRODUCED_71_],1);
constraint array_int_element_offset(X_INTRODUCED_20_,X_INTRODUCED_68_,X_INTRODUCED_73_,1);
constraint int_lin_le(X_INTRODUCED_53_,[X_INTRODUCED_70_,X_INTRODUCED_71_,X_INTRODUCED_73_],1);
constraint array_int_element_offset(X_INTRODUCED_21_,X_INTRODUCED_68_,X_INTRODUCED_75_,1);
constraint int_lin_le(X_INTRODUCED_53_,[X_INTRODUCED_71_,X_INTRODUCED_73_,X_INTRODUCED_75_],1);
constraint array_int_element_offset(X_INTRODUCED_22_,X_INTRODUCED_68_,X_INTRODUCED_77_,1);
constraint int_lin_le(X_INTRODUCED_53_,[X_INTRODUCED_73_,X_INTRODUCED_75_,X_INTRODUCED_77_],1);
constraint array_int_element_offset(X_INTRODUCED_23_,X_INTRODUCED_68_,X_INTRODUCED_79_,1);
constraint int_lin_le(X_INTRODUCED_53_,[X_INTRODUCED_75_,X_INTRODUCED_77_,X_INTRODUCED_79_],1);
constraint array_int_element_offset(X_INTRODUCED_24_,X_INTRODUCED_68_,X_INTRODUCED_81_,1);
constraint int_lin_le(X_INTRODUCED_53_,[X_INTRODUCED_77_,X_INTRODUCED_79_,X_INTRODUCED_81_],1);
constraint array_int_element_offset(X_INTRODUCED_25_,X_INTRODUCED_68_,X_INTRODUCED_83_,1);
constraint int_lin_le(X_INTRODUCED_53_,[X_INTRODUCED_79_,X_INTRODUCED_81_,X_INTRODUCED_83_],1);
constraint array_int_element_offset(X_INTRODUCED_26_,X_INTRODUCED_68_,X_INTRODUCED_85_,1);
constraint int_lin_le(X_INTRODUCED_53_,[X_INTRODUCED_81_,X_INTRODUCED_83_,X_INTRODUCED_85_],1);
constraint array_int_element_offset(X_INTRODUCED_17_,X_INTRODUCED_87_,X_INTRODUCED_88_,1);
constraint array_int_element_offset(X_INTRODUCED_18_,X_INTRODUCED_87_,X_INTRODUCED_89_,1);
constraint array_int_element_offset(X_INTRODUCED_19_,X_INTRODUCED_87_,X_INTRODUCED_90_,1);
constraint array_int_element_offset(X_INTRODUCED_20_,X_INTRODUCED_87_,X_INTRODUCED_91_,1);
constraint array_int_element_offset(X_INTRODUCED_21_,X_INTRODUCED_87_,X_INTRODUCED_92_,1);
constraint int_lin_le(X_INTRODUCED_94_,[X_INTRODUCED_88_,X_INTRODUCED_89_,X_INTRODUCED_90_,X_INTRODUCED_91_,X_INTRODUCED_92_],2);
constraint array_int_element_offset(X_INTRODUCED_22_,X_INTRODUCED_87_,X_INTRODUCED_95_,1);
constraint int_lin_le(X_INTRODUCED_94_,[X_INTRODUCED_89_,X_INTRODUCED_90_,X_INTRODUCED_91_,X_INTRODUCED_92_,X_INTRODUCED_95_],2);
constraint array_int_element_offset(X_INTRODUCED_23_,X_INTRODUCED_87_,X_INTRODUCED_97_,1);
constraint int_lin_le(X_INTRODUCED_94_,[X_INTRODUCED_90_,X_INTRODUCED_91_,X_INTRODUCED_92_,X_INTRODUCED_95_,X_INTRODUCED_97_],2);
constraint array_int_element_offset(X_INTRODUCED_24_,X_INTRODUCED_87_,X_INTRODUCED_99_,1);
constraint int_lin_le(X_INTRODUCED_94_,[X_INTRODUCED_91_,X_INTRODUCED_92_,X_INTRODUCED_95_,X_INTRODUCED_97_,X_INTRODUCED_99_],2);
constraint array_int_element_offset(X_INTRODUCED_25_,X_INTRODUCED_87_,X_INTRODUCED_101_,1);
constraint int_lin_le(X_INTRODUCED_94_,[X_INTRODUCED_92_,X_INTRODUCED_95_,X_INTRODUCED_97_,X_INTRODUCED_99_,X_INTRODUCED_101_],2);
constraint array_int_element_offset(X_INTRODUCED_26_,X_INTRODUCED_87_,X_INTRODUCED_103_,1);
constraint int_lin_le(X_INTRODUCED_94_,[X_INTRODUCED_95_,X_INTRODUCED_97_,X_INTRODUCED_99_,X_INTRODUCED_101_,X_INTRODUCED_103_],2);
constraint array_int_element_offset(X_INTRODUCED_17_,X_INTRODUCED_105_,X_INTRODUCED_106_,1);
constraint array_int_element_offset(X_INTRODUCED_18_,X_INTRODUCED_105_,X_INTRODUCED_107_,1);
constraint array_int_element_offset(X_INTRODUCED_19_,X_INTRODUCED_105_,X_INTRODUCED_108_,1);
constraint array_int_element_offset(X_INTRODUCED_20_,X_INTRODUCED_105_,X_INTRODUCED_109_,1);
constraint array_int_element_offset(X_INTRODUCED_21_,X_INTRODUCED_105_,X_INTRODUCED_110_,1);
constraint int_lin_le(X_INTRODUCED_94_,[X_INTRODUCED_106_,X_INTRODUCED_107_,X_INTRODUCED_108_,X_INTRODUCED_109_,X_INTRODUCED_110_],1);
constraint array_int_element_offset(X_INTRODUCED_22_,X_INTRODUCED_105_,X_INTRODUCED_112_,1);
constraint int_lin_le(X_INTRODUCED_94_,[X_INTRODUCED_107_,X_INTRODUCED_108_,X_INTRODUCED_109_,X_INTRODUCED_110_,X_INTRODUCED_112_],1);
constraint array_int_element_offset(X_INTRODUCED_23_,X_INTRODUCED_105_,X_INTRODUCED_114_,1);
constraint int_lin_le(X_INTRODUCED_94_,[X_INTRODUCED_108_,X_INTRODUCED_109_,X_INTRODUCED_110_,X_INTRODUCED_112_,X_INTRODUCED_114_],1);
constraint array_int_element_offset(X_INTRODUCED_24_,X_INTRODUCED_105_,X_INTRODUCED_116_,1);
constraint int_lin_le(X_INTRODUCED_94_,[X_INTRODUCED_109_,X_INTRODUCED_110_,X_INTRODUCED_112_,X_INTRODUCED_114_,X_INTRODUCED_116_],1);
constraint array_int_element_offset(X_INTRODUCED_25_,X_INTRODUCED_105_,X_INTRODUCED_118_,1);
constraint int_lin_le(X_INTRODUCED_94_,[X_INTRODUCED_110_,X_INTRODUCED_112_,X_INTRODUCED_114_,X_INTRODUCED_116_,X_INTRODUCED_118_],1);
constraint array_int_element_offset(X_INTRODUCED_26_,X_INTRODUCED_105_,X_INTRODUCED_120_,1);
constraint int_lin_le(X_INTRODUCED_94_,[X_INTRODUCED_112_,X_INTRODUCED_114_,X_INTRODUCED_116_,X_INTRODUCED_118_,X_INTRODUCED_120_],1);
solve  satisfy;
